sat
(:max-memory        19.02
 :memory            17.63
 :num-allocs        51781480
 :rlimit-count      1037218
 :sls-constraints   6551
 :sls-ddfw-flips    3144661.00
 :sls-ddfw-reinits  25
 :sls-ddfw-restarts 100
 :sls-ddfw-shifts   465197.00
 :sls.euf-conflict  6551
 :time              2.69
 :total-time        2.67)
